nr = 5;
nc = 7;
ndefh = 7;
ndefv = 8;
r = 1;
s = 9;
defH = array2d(1..ndefh, 1..3,
       [ 1,9,2,
         4,12,4,
         8,14,4,
         15,4,2,
         19,11,3,
         24,13,3,
         30,15,5
        ]);
defV = array2d(1..ndefv, 1..3,
       [ 
        1,13,4,
        2,10,3,
        4,8,2,
        6,12,3,
        19,14,3,
        21,6,2,
        24,4,2,
        25,7,2
        ]);
        
problem = array2d(1..nr, 1..nc,
          [
            1,1,0,1,1,1,1,
            1,1,1,1,0,1,0,
            1,1,0,0,1,1,1,
            1,0,1,1,1,0,1,
            0,1,1,1,1,1,0
            ]);